RT is False
Default write of storage_offers_DA.csv just to have a file (but constraint should be inactive)
Reading model...
...model read.
creating competitive generators file...
...competitive generators recorded.
Loading data...
.. day-ahead data read.
Compiling instance...
...instance created.
Creating Offer Mitigation (model will solve as dispatch if TRUE)...
NOTE: storage offers will not be mitigated
...storage offer mitigation file created
Converting model to MPEC...
...converted
NOTE: initial MIP solve with only storage competitive to get feasible solution
Solving...

Welcome to IBM(R) ILOG(R) CPLEX(R) Interactive Optimizer 12.9.0.0
  with Simplex, Mixed Integer & Barrier Optimizers
5725-A06 5725-A29 5724-Y48 5724-Y49 5724-Y54 5724-Y55 5655-Y21
Copyright IBM Corp. 1988, 2019.  All Rights Reserved.

Type 'help' for a list of available commands.
Type 'help' followed by a command name for more
information on commands.

CPLEX> Logfile 'cplex.log' closed.
Logfile 'C:\Users\llavin\Desktop\test826\logs\tmp73wqw1zb.cplex.log' open.
CPLEX> New value for parallel optimization mode: -1
CPLEX> New value for mixed integer optimality gap tolerance: 0.01
CPLEX> New value for integrality tolerance: 1e-12
CPLEX> New value for deterministic time limit in ticks: 105000
CPLEX> Problem 'C:\Users\llavin\Desktop\test826\logs\tmppu7mbb4w.pyomo.lp' read.
Read time = 0.19 sec. (13.64 ticks)
CPLEX> Problem name         : C:\Users\llavin\Desktop\test826\logs\tmppu7mbb4w.pyomo.lp
Objective sense      : Maximize
Variables            :   53815  [Nneg: 1,  Box: 22002,  Free: 4464,
                                 Binary: 27348]
Objective nonzeros   :    8944
Linear constraints   :  123235  [Less: 41356,  Greater: 59114,  Equal: 22765]
  Nonzeros           :  292569
  RHS nonzeros       :   67479

Variables            : Min LB: -5000.000        Max UB: 1000000.       
Objective nonzeros   : Min   : 0.1000000        Max   : 842.1000       
Linear constraints   :
  Nonzeros           : Min   : 0.1000000        Max   : 1000000.       
  RHS nonzeros       : Min   : 0.001000000      Max   : 1000000.       
CPLEX> CPXPARAM_Parallel                                -1
CPXPARAM_DetTimeLimit                            105000
CPXPARAM_MIP_Tolerances_MIPGap                   0.01
CPXPARAM_MIP_Tolerances_Integrality              9.9999999999999998e-13
Tried aggregator 3 times.
MIP Presolve eliminated 88837 rows and 19092 columns.
MIP Presolve added 3364 rows and 0 columns.
MIP Presolve modified 24872 coefficients.
Aggregator did 13005 substitutions.
Reduced MIP has 24757 rows, 21137 columns, and 70873 nonzeros.
Reduced MIP has 8344 binaries, 0 generals, 0 SOSs, and 0 indicators.
Presolve time = 0.25 sec. (172.60 ticks)
Probing fixed 384 vars, tightened 4215 bounds.
Probing time = 0.08 sec. (19.00 ticks)
Tried aggregator 2 times.
MIP Presolve eliminated 866 rows and 769 columns.
MIP Presolve modified 3008 coefficients.
Aggregator did 36 substitutions.
Reduced MIP has 23855 rows, 20332 columns, and 68259 nonzeros.
Reduced MIP has 7960 binaries, 0 generals, 0 SOSs, and 0 indicators.
Presolve time = 0.09 sec. (92.63 ticks)
Probing fixed 0 vars, tightened 339 bounds.
Probing time = 0.14 sec. (22.64 ticks)
Clique table members: 44326.
MIP emphasis: balance optimality and feasibility.
MIP search method: dynamic search.
Parallel mode: opportunistic, using up to 32 threads.
Root relaxation solution time = 0.34 sec. (597.88 ticks)

        Nodes                                         Cuts/
   Node  Left     Objective  IInf  Best Integer    Best Bound    ItCnt     Gap

      0     0     8206.5436   102                   8206.5436     5184         
      0     0     8206.2970     8                    Cuts: 29     5195         
      0     0     8201.0858     9                     Cuts: 6     5201         
      0     0     8201.0858    10                     Cuts: 2     5205         
      0     0     8201.0858    12                     Cuts: 5     5209         
      0    27    infeasible                           Cuts: 4     5453         
Elapsed time = 4.39 sec. (2296.09 ticks, tree = 0.02 MB, solutions = 0)
    422    82     8095.3204     3                   8101.4994     5882         
*   822   307      integral     0     7444.4911     8101.4994    10396    8.83%
   1127   287     7782.0183     3     7444.4911     8101.4994    16228    8.83%
   1384   376     7852.0677     3     7444.4911     8101.4994    23779    8.83%
   1613   442     8055.2018     2     7444.4911     8101.4994    23965    8.83%
   1814   519     8066.0852     2     7444.4911     8101.4994    24099    8.83%
   1991   518        cutoff           7444.4911     8101.4994    24101    8.83%
*  2075   545      integral     0     8084.6093     8101.4994    24215    0.21%

Clique cuts applied:  4
Cover cuts applied:  9
Implied bound cuts applied:  5
Flow cuts applied:  21
Mixed integer rounding cuts applied:  1
Lift and project cuts applied:  2
Gomory fractional cuts applied:  6

Root node processing (before b&c):
  Real time             =    3.02 sec. (2276.80 ticks)
Parallel b&c, 32 threads:
  Real time             =    9.56 sec. (1974.47 ticks)
  Sync time (average)   =    0.64 sec.
  Wait time (average)   =    0.00 sec.
                          ------------
Total (root+branch&cut) =   12.58 sec. (4251.27 ticks)

Solution pool: 2 solutions saved.

MIP - Integer optimal, tolerance (0.01/1e-06):  Objective =  8.0846093431e+03
Current MIP best bound =  8.1014993871e+03 (gap = 16.89, 0.21%)
Solution time =   12.58 sec.  Iterations = 24390  Nodes = 2080 (145)
Deterministic time = 4251.43 ticks  (338.00 ticks/sec)

CPLEX> Incumbent solution written to file 'C:\Users\llavin\Desktop\test826\logs\tmpxk4vual1.cplex.sol'.
CPLEX> NOTE: no warmstart specified for MIP iteration, default behavior is true
NOTE: resolving with all competitive generators using storage-only solution to warmstart
Solving...

Welcome to IBM(R) ILOG(R) CPLEX(R) Interactive Optimizer 12.9.0.0
  with Simplex, Mixed Integer & Barrier Optimizers
5725-A06 5725-A29 5724-Y48 5724-Y49 5724-Y54 5724-Y55 5655-Y21
Copyright IBM Corp. 1988, 2019.  All Rights Reserved.

Type 'help' for a list of available commands.
Type 'help' followed by a command name for more
information on commands.

CPLEX> Logfile 'cplex.log' closed.
Logfile 'C:\Users\llavin\Desktop\test826\logs\tmpf9upyqm0.cplex.log' open.
CPLEX> New value for parallel optimization mode: -1
CPLEX> New value for mixed integer optimality gap tolerance: 0.01
CPLEX> New value for integrality tolerance: 1e-12
CPLEX> New value for deterministic time limit in ticks: 105000
CPLEX> Problem 'C:\Users\llavin\Desktop\test826\logs\tmpqo7a3_c6.pyomo.lp' read.
Read time = 0.20 sec. (13.66 ticks)
CPLEX> MIP start file 'C:\Users\llavin\Desktop\test826\logs\tmphjrwr_bn.cplex.mst' read.
CPLEX> Problem name         : C:\Users\llavin\Desktop\test826\logs\tmpqo7a3_c6.pyomo.lp
Objective sense      : Maximize
Variables            :   54535  [Nneg: 1,  Box: 22722,  Free: 4464,
                                 Binary: 27348]
Objective nonzeros   :    9640
Linear constraints   :  123235  [Less: 41356,  Greater: 59114,  Equal: 22765]
  Nonzeros           :  292569
  RHS nonzeros       :   67479

Variables            : Min LB: -5000.000        Max UB: 1000000.       
Objective nonzeros   : Min   : 0.1000000        Max   : 796.5000       
Linear constraints   :
  Nonzeros           : Min   : 0.1000000        Max   : 1000000.       
  RHS nonzeros       : Min   : 0.001000000      Max   : 1000000.       
CPLEX> CPXPARAM_Parallel                                -1
CPXPARAM_DetTimeLimit                            105000
CPXPARAM_MIP_Tolerances_MIPGap                   0.01
CPXPARAM_MIP_Tolerances_Integrality              9.9999999999999998e-13
Warning:  No solution found from 1 MIP starts.
Retaining values of one MIP start for possible repair.
Tried aggregator 3 times.
MIP Presolve eliminated 88837 rows and 19812 columns.
MIP Presolve added 3364 rows and 0 columns.
MIP Presolve modified 24872 coefficients.
Aggregator did 13005 substitutions.
Reduced MIP has 24757 rows, 21137 columns, and 70873 nonzeros.
Reduced MIP has 8344 binaries, 0 generals, 0 SOSs, and 0 indicators.
Presolve time = 0.26 sec. (172.96 ticks)
Probing fixed 384 vars, tightened 4215 bounds.
Probing time = 0.06 sec. (19.00 ticks)
Tried aggregator 2 times.
MIP Presolve eliminated 866 rows and 769 columns.
MIP Presolve modified 3008 coefficients.
Aggregator did 36 substitutions.
Reduced MIP has 23855 rows, 20332 columns, and 68259 nonzeros.
Reduced MIP has 7960 binaries, 0 generals, 0 SOSs, and 0 indicators.
Presolve time = 0.11 sec. (92.64 ticks)
Probing fixed 0 vars, tightened 339 bounds.
Probing time = 0.11 sec. (22.64 ticks)
Clique table members: 44326.
MIP emphasis: balance optimality and feasibility.
MIP search method: dynamic search.
Parallel mode: opportunistic, using up to 32 threads.
Root relaxation solution time = 0.41 sec. (657.86 ticks)

        Nodes                                         Cuts/
   Node  Left     Objective  IInf  Best Integer    Best Bound    ItCnt     Gap

      0     0    74561.6870   243                  74561.6870     6184         
      0     0    73463.7812   138                   Cuts: 106     6292         
      0     0    73324.6166   134                    Cuts: 45     6350         
      0     0    73291.2298   128                    Cuts: 30     6365         
      0     0    73282.9395   128                    Cuts: 22     6388         
      0     0    73279.1548   132                     Cuts: 9     6398         
      0     0    73264.4266   133                     Cuts: 2     6404         
      0     0    73259.4757   133                    Cuts: 12     6407         
Repair heuristic found nothing.
      0    34    68814.4868   119                     Cuts: 9     7043         
Elapsed time = 6.27 sec. (3370.58 ticks, tree = 0.02 MB, solutions = 0)
    507    58    64831.6551    65                  72865.2365     7620         
   1079   429    67928.1850    71                  72865.2365    14682         
   1646   862    54243.3118    36                  72865.2365    23008         
   2247  1022    67472.9469    74                  72865.2365    25051         
   2781  1335    61161.4507    82                  72865.2365    31567         
   3448  1717    55553.0513    43                  72736.7311    45286         
*  3497  1771      integral     0    45822.1472    72736.7311    47591   58.74%
   4130  1538    49388.6165    69    45822.1472    69793.4617    56081   52.31%
   4776  1608    49363.4720    69    45822.1472    69719.1394    61056   52.15%
   7483  3071    46492.6300    62    45822.1472    68318.6135    99440   49.10%
Elapsed time = 21.16 sec. (6247.60 ticks, tree = 54.64 MB, solutions = 1)
   8569  4049        cutoff          45822.1472    48720.1768   133130    6.32%
   9364    68    47069.3275    38    45822.1472    47707.5677   136906    4.11%
  10147   278    46410.2577    42    45822.1472    47707.5677   141961    4.11%
  10615   353    46345.4382    62    45822.1472    47707.5677   143607    4.11%
  11525   461    46368.7021    34    45822.1472    47536.7448   146307    3.74%
  12826   800    infeasible          45822.1472    47365.6773   151961    3.37%
  14220   984    46712.3922    39    45822.1472    47277.4837   155608    3.18%
  15677  1202    46666.6207    41    45822.1472    47277.4837   159357    3.18%
  17224  2212    infeasible          45822.1472    47272.3124   183636    3.16%
  18729  1935    infeasible          45822.1472    47252.9092   178112    3.12%
Elapsed time = 114.44 sec. (19004.31 ticks, tree = 12.25 MB, solutions = 1)
  20303  3311    46679.1611    38    45822.1472    47252.9092   221336    3.12%
  21628  2892    46639.9169    52    45822.1472    47252.9092   207638    3.12%
  22901  2903    47165.2742    50    45822.1472    47240.4854   207953    3.10%
  24358  3378    46703.8385    40    45822.1472    47240.4854   226127    3.10%
  25677  3664    46670.0093    36    45822.1472    47240.4854   236061    3.10%
  26869  3798        cutoff          45822.1472    47174.7723   241767    2.95%
  27877  3726    47158.7469    52    45822.1472    47149.2488   238172    2.90%
  28930  3986    46793.6835    40    45822.1472    47149.2488   247880    2.90%
  30204  4824    46333.1923    30    45822.1472    47149.2488   281040    2.90%
  31714  4449    46242.1607    39    45822.1472    47144.8431   265032    2.89%
Elapsed time = 207.83 sec. (28547.04 ticks, tree = 29.36 MB, solutions = 1)
  33262  5336    46661.8687    40    45822.1472    46885.8526   296075    2.32%
  34766  5281    46719.8850    36    45822.1472    46885.8526   295222    2.32%
  36206  5035    46691.4800    39    45822.1472    46820.4910   287384    2.18%
  37644  5227    46699.4328    40    45822.1472    46807.2700   293100    2.15%
  38993  8018    46168.9831    41    45822.1472    46807.2700   364443    2.15%
  40317  8017    46183.1627    31    45822.1472    46807.2700   364789    2.15%
  41631  6488    46246.7359    21    45822.1472    46806.2508   326155    2.15%
  42815  9159        cutoff          45822.1472    46806.2508   391161    2.15%
  43949  7711    46701.6444    31    45822.1472    46806.2508   353025    2.15%
  45034  7751    46213.6241    42    45822.1472    46798.0892   353658    2.13%
Elapsed time = 302.89 sec. (38093.05 ticks, tree = 55.08 MB, solutions = 1)
  46337  8772    46173.7292    42    45822.1472    46798.0892   382070    2.13%
  47671  8102    46698.8698    35    45822.1472    46798.0892   366305    2.13%
  49126  7863    46707.8668    34    45822.1472    46796.2136   359061    2.13%
  50417  8556    46260.3132    23    45822.1472    46793.6835   376018    2.12%
  51686  8182    45975.9111    29    45822.1472    46793.6835   369422    2.12%
  52929  9380    46730.6629    34    45822.1472    46786.9930   395906    2.11%
  54111 10050    46653.8612    44    45822.1472    46785.6172   414393    2.10%
  55211  9787        cutoff          45822.1472    46761.2944   403995    2.05%
  56158 11407    46427.6627    37    45822.1472    46761.2944   443708    2.05%
  57123  9924    46543.2049    44    45822.1472    46761.2944   409401    2.05%
Elapsed time = 388.45 sec. (47640.61 ticks, tree = 72.50 MB, solutions = 1)
  58012 12288    46255.8156    26    45822.1472    46761.2944   468598    2.05%
  59029 12460        cutoff          45822.1472    46761.2944   472525    2.05%
  60214 11294    46273.9673    21    45822.1472    46761.2944   442570    2.05%
  61520 12351    infeasible          45822.1472    46761.2944   469155    2.05%
  62940 12554        cutoff          45822.1472    46761.2944   474808    2.05%
  64304 11795    46704.5415    41    45822.1472    46761.2944   454471    2.05%
  65522 12426    46511.2932    32    45822.1472    46761.2944   469029    2.05%
  66623 13006    46190.6903    31    45822.1472    46761.2944   481312    2.05%
  67648 12323    46273.6767    24    45822.1472    46761.2944   469219    2.05%
  68551 12708    46684.3318    41    45822.1472    46761.2944   477405    2.05%
Elapsed time = 402.16 sec. (57182.27 ticks, tree = 94.11 MB, solutions = 1)
  69210 12723    46659.3125    37    45822.1472    46761.2944   477668    2.05%
  69643 13301        cutoff          45822.1472    46761.2944   488966    2.05%
  69794 13300    46712.6403    34    45822.1472    46761.2944   488982    2.05%
  69822 15942        cutoff          45822.1472    46730.6629   549254    1.98%
  70154    21    46411.8136    30    45822.1472    46295.3980   550431    1.03%
  70360   101    47075.4202    36    45822.1472    46295.3980   552616    1.03%
  70479   161    46364.6843    48    45822.1472    46295.3980   553546    1.03%

Clique cuts applied:  3
Cover cuts applied:  10
Implied bound cuts applied:  1
Flow cuts applied:  101
Mixed integer rounding cuts applied:  21
Zero-half cuts applied:  2
Lift and project cuts applied:  1
Gomory fractional cuts applied:  7

Root node processing (before b&c):
  Real time             =    4.42 sec. (3321.41 ticks)
Parallel b&c, 32 threads:
  Real time             =  415.95 sec. (64344.88 ticks)
  Sync time (average)   =   10.30 sec.
  Wait time (average)   =    0.36 sec.
                          ------------
Total (root+branch&cut) =  420.38 sec. (67666.29 ticks)

Solution pool: 1 solution saved.

MIP - Integer optimal, tolerance (0.01/1e-06):  Objective =  4.5822147248e+04
Current MIP best bound =  4.6279624382e+04 (gap = 457.477, 1.00%)
Solution time =  420.39 sec.  Iterations = 554985  Nodes = 70484 (271)
Deterministic time = 67666.44 ticks  (160.96 ticks/sec)

CPLEX> Incumbent solution written to file 'C:\Users\llavin\Desktop\test826\logs\tmpr9758mnd.cplex.sol'.
CPLEX> Exporting results... 
